NAME : 10_3_3_1_(25).dat
COMMENT : Henke, Speranza, Wäscher, 2015
TYPE : MCVRP
DIMENSION : 11
EDGE_WEIGHT_TYPE : DISTANCE_MATRIX
CAPACITY : 1000
VEHICLES : 3
PRODUCT TYPES : 3
COMPARTMENTS : 3
NODE_COORD_SECTION
1 50 50
2 95.03 97.49
3 56.04 22.06
4 22.85 84.12
5 65.03 31.22
6 58.85 96.06
7 48.95 64.65
8 31.1 34.31
9 53.03 67.67
10 1.39 88.58
11 40.56 93.58
DEMAND_SECTION
1 0 0 0
2 0 283 0
3 0 0 338
4 132 0 0
5 60 0 0
6 192 0 0
7 0 81 0
8 172 0 0
9 0 144 0
10 218 0 0
11 73 0 0
DEPOT_SECTION
1
EOF